
  32    4
  10   10   10   10

   0   0   0   0   0   4 2 9 30 31 
   7  10  10  10  10   1 3 
   3  10  10  10  10   2 29 4 
   6  10  10  10  10   2 28 5 
  10  10  10  10  10   4 27 26 25 6 
   4  10  10  10  10   2 24 7 
   2  10  10  10  10   1 8 
  10  10  10  10  10   3 23 15 10 
  10  10  10  10  10   4 23 22 21 10 
  10  10  10  10  10   1 11 
   1  10  10  10  10   1 12 
  10  10  10  10  10   1 13 
   3  10  10  10  10   3 20 19 14 
   4  10  10  10  10   1 16 
   2  10  10  10  10   2 22 21 
   3  10  10  10  10   1 17 
   5  10  10  10  10   1 18 
   5  10  10  10  10   1 32
   8  10  10  10  10   1 32
   7  10  10  10  10   1 32
   3  10  10  10  10   1 32
   9  10  10  10  10   1 32
   3  10  10  10  10   1 32
  10  10  10  10  10   1 32
   4  10  10  10  10   1 32
   8  10  10  10  10   1 32
   2  10  10  10  10   1 32
   4  10  10  10  10   1 32
   2  10  10  10  10   1 32
   9  10  10  10  10   1 32
   7  10  10  10  10   1 32
   0   0   0   0   0   0 
